p edge 22 66
e 1 11
e 1 18
e 1 18
e 2 1
e 2 14
e 2 16
e 3 2
e 3 4
e 3 7
e 4 8
e 4 9
e 4 17
e 5 4
e 5 8
e 5 21
e 6 1
e 6 3
e 6 11
e 7 6
e 7 9
e 7 22
e 8 5
e 8 7
e 8 12
e 9 1
e 9 4
e 9 22
e 10 19
e 10 22
e 10 22
e 11 8
e 11 10
e 11 15
e 12 8
e 12 9
e 12 14
e 13 8
e 13 11
e 13 22
e 14 1
e 14 2
e 14 16
e 15 5
e 15 21
e 15 22
e 16 7
e 16 8
e 16 20
e 17 3
e 17 7
e 17 14
e 18 7
e 18 17
e 18 19
e 19 8
e 19 16
e 19 17
e 20 4
e 20 5
e 20 16
e 21 7
e 21 10
e 21 11
e 22 2
e 22 14
e 22 16
